33D32945 STP File, STP Format Version 1.0

SECTION Comment
Name "i640-105-PCST"
Creator "Indaco Biazzo" 
Remark "derived from Incidence graph by Cees Duin"
END

SECTION Graph
Nodes 640
Edges 960
E 1 87 197.000000
E 1 135 200.000000
E 1 152 210.000000
E 1 184 199.000000
E 1 258 205.000000
E 1 280 207.000000
E 1 298 196.000000
E 1 388 193.000000
E 1 429 189.000000
E 1 495 196.000000
E 2 5 296.000000
E 2 367 198.000000
E 2 430 195.000000
E 3 4 304.000000
E 3 61 198.000000
E 3 122 203.000000
E 3 185 196.000000
E 3 244 197.000000
E 3 311 204.000000
E 3 451 192.000000
E 3 485 202.000000
E 4 94 198.000000
E 4 255 206.000000
E 4 433 201.000000
E 4 468 200.000000
E 4 502 208.000000
E 4 611 199.000000
E 5 211 196.000000
E 5 221 205.000000
E 5 285 202.000000
E 5 480 193.000000
E 5 481 199.000000
E 5 573 194.000000
E 6 17 290.000000
E 6 613 203.000000
E 7 76 191.000000
E 7 203 207.000000
E 7 564 187.000000
E 8 70 197.000000
E 9 314 199.000000
E 9 334 197.000000
E 9 363 194.000000
E 9 411 198.000000
E 9 604 201.000000
E 9 621 202.000000
E 10 53 199.000000
E 10 391 202.000000
E 11 171 199.000000
E 11 438 190.000000
E 12 113 198.000000
E 12 553 200.000000
E 13 102 193.000000
E 13 210 201.000000
E 13 423 213.000000
E 13 435 203.000000
E 14 152 200.000000
E 14 334 205.000000
E 14 361 203.000000
E 14 445 196.000000
E 14 585 203.000000
E 15 239 207.000000
E 15 332 200.000000
E 15 589 197.000000
E 16 357 205.000000
E 16 504 202.000000
E 16 512 202.000000
E 17 54 197.000000
E 17 97 195.000000
E 18 439 191.000000
E 18 467 207.000000
E 19 86 193.000000
E 19 94 201.000000
E 19 173 200.000000
E 19 330 202.000000
E 20 287 198.000000
E 21 40 201.000000
E 21 442 205.000000
E 22 201 206.000000
E 23 262 207.000000
E 24 261 207.000000
E 25 112 206.000000
E 25 166 193.000000
E 25 267 201.000000
E 25 361 204.000000
E 25 595 197.000000
E 26 107 106.000000
E 26 387 112.000000
E 27 131 94.000000
E 27 534 92.000000
E 27 552 100.000000
E 28 62 97.000000
E 28 192 96.000000
E 28 205 99.000000
E 28 273 95.000000
E 28 328 100.000000
E 28 389 98.000000
E 29 136 102.000000
E 29 330 101.000000
E 30 611 93.000000
E 31 362 93.000000
E 31 571 100.000000
E 31 618 108.000000
E 31 634 101.000000
E 32 274 96.000000
E 32 313 100.000000
E 32 380 99.000000
E 33 129 102.000000
E 33 639 99.000000
E 34 226 100.000000
E 34 380 102.000000
E 35 309 96.000000
E 35 416 102.000000
E 36 367 101.000000
E 36 438 92.000000
E 36 595 100.000000
E 37 168 101.000000
E 37 193 92.000000
E 37 368 101.000000
E 37 379 102.000000
E 38 84 94.000000
E 38 595 101.000000
E 39 97 95.000000
E 39 261 110.000000
E 39 285 97.000000
E 39 416 105.000000
E 39 610 96.000000
E 40 301 90.000000
E 41 160 94.000000
E 41 339 104.000000
E 41 493 95.000000
E 41 504 102.000000
E 42 119 105.000000
E 42 204 96.000000
E 42 207 101.000000
E 42 483 102.000000
E 42 497 90.000000
E 43 164 96.000000
E 43 498 102.000000
E 44 435 102.000000
E 45 154 93.000000
E 45 198 94.000000
E 45 418 107.000000
E 45 461 99.000000
E 46 497 100.000000
E 47 438 98.000000
E 47 468 102.000000
E 48 332 100.000000
E 48 382 102.000000
E 49 340 92.000000
E 50 313 99.000000
E 50 325 108.000000
E 51 361 87.000000
E 51 639 104.000000
E 52 135 104.000000
E 52 141 96.000000
E 52 162 107.000000
E 53 214 101.000000
E 53 238 99.000000
E 53 251 96.000000
E 53 295 102.000000
E 53 368 104.000000
E 53 389 109.000000
E 54 77 100.000000
E 54 149 89.000000
E 54 532 95.000000
E 55 95 96.000000
E 55 255 104.000000
E 55 427 94.000000
E 56 142 110.000000
E 56 371 103.000000
E 57 188 95.000000
E 57 476 95.000000
E 58 249 99.000000
E 58 550 98.000000
E 58 631 104.000000
E 59 105 96.000000
E 60 307 92.000000
E 60 495 93.000000
E 61 601 102.000000
E 61 605 111.000000
E 63 232 102.000000
E 64 520 111.000000
E 65 199 106.000000
E 65 390 94.000000
E 65 440 89.000000
E 66 141 99.000000
E 66 403 95.000000
E 67 502 104.000000
E 68 351 94.000000
E 68 403 106.000000
E 69 389 106.000000
E 69 558 108.000000
E 70 134 93.000000
E 70 216 91.000000
E 70 266 96.000000
E 70 274 92.000000
E 70 306 97.000000
E 70 469 97.000000
E 70 538 103.000000
E 70 616 94.000000
E 71 279 93.000000
E 72 582 104.000000
E 73 183 97.000000
E 74 102 93.000000
E 74 556 96.000000
E 75 491 97.000000
E 75 550 107.000000
E 76 238 102.000000
E 76 246 100.000000
E 77 97 109.000000
E 77 477 100.000000
E 78 338 109.000000
E 79 242 96.000000
E 79 363 110.000000
E 79 544 96.000000
E 80 447 103.000000
E 81 492 100.000000
E 81 528 97.000000
E 82 85 107.000000
E 82 184 96.000000
E 82 546 99.000000
E 83 577 97.000000
E 84 451 104.000000
E 84 527 100.000000
E 85 149 105.000000
E 85 221 111.000000
E 86 447 104.000000
E 86 487 94.000000
E 86 499 96.000000
E 86 513 97.000000
E 87 217 93.000000
E 87 363 94.000000
E 88 129 101.000000
E 88 154 103.000000
E 88 172 104.000000
E 88 181 97.000000
E 88 395 100.000000
E 89 253 98.000000
E 89 289 99.000000
E 89 297 102.000000
E 90 104 90.000000
E 90 335 92.000000
E 90 571 100.000000
E 90 608 101.000000
E 91 214 103.000000
E 91 216 101.000000
E 91 494 100.000000
E 91 588 101.000000
E 92 111 92.000000
E 92 177 97.000000
E 92 223 104.000000
E 92 259 97.000000
E 93 349 98.000000
E 94 195 99.000000
E 94 551 100.000000
E 95 163 99.000000
E 95 269 103.000000
E 95 555 101.000000
E 95 635 95.000000
E 96 388 98.000000
E 96 577 101.000000
E 97 103 99.000000
E 97 141 101.000000
E 97 154 96.000000
E 97 581 103.000000
E 98 640 97.000000
E 99 235 91.000000
E 99 608 96.000000
E 100 475 106.000000
E 101 356 93.000000
E 103 114 108.000000
E 103 323 102.000000
E 103 484 99.000000
E 103 627 98.000000
E 104 328 91.000000
E 105 408 98.000000
E 105 581 101.000000
E 106 311 105.000000
E 106 504 98.000000
E 106 610 107.000000
E 107 146 110.000000
E 107 321 98.000000
E 107 520 93.000000
E 107 554 101.000000
E 108 268 104.000000
E 108 341 96.000000
E 108 373 101.000000
E 108 406 107.000000
E 108 432 105.000000
E 109 291 103.000000
E 109 352 109.000000
E 109 566 99.000000
E 110 550 103.000000
E 111 328 104.000000
E 111 541 91.000000
E 112 368 102.000000
E 112 603 102.000000
E 113 485 96.000000
E 113 508 105.000000
E 114 292 92.000000
E 115 315 96.000000
E 115 370 104.000000
E 115 542 91.000000
E 116 155 96.000000
E 116 170 101.000000
E 116 184 97.000000
E 116 567 91.000000
E 117 128 102.000000
E 117 601 97.000000
E 118 441 98.000000
E 120 535 99.000000
E 120 584 96.000000
E 121 153 95.000000
E 121 609 98.000000
E 123 391 99.000000
E 123 395 102.000000
E 123 407 101.000000
E 124 219 98.000000
E 124 444 97.000000
E 125 389 93.000000
E 126 331 96.000000
E 127 624 101.000000
E 128 626 100.000000
E 129 497 104.000000
E 129 587 98.000000
E 130 157 101.000000
E 131 554 97.000000
E 132 140 106.000000
E 132 339 85.000000
E 133 391 95.000000
E 133 448 101.000000
E 134 619 91.000000
E 135 233 95.000000
E 135 317 97.000000
E 135 402 103.000000
E 135 556 100.000000
E 135 634 96.000000
E 136 356 94.000000
E 136 447 101.000000
E 137 439 96.000000
E 137 538 103.000000
E 138 189 102.000000
E 138 357 101.000000
E 138 413 94.000000
E 138 524 101.000000
E 138 632 109.000000
E 139 373 102.000000
E 139 410 95.000000
E 140 170 102.000000
E 140 221 103.000000
E 140 365 94.000000
E 140 573 96.000000
E 142 334 101.000000
E 143 327 103.000000
E 143 590 100.000000
E 144 363 99.000000
E 145 162 101.000000
E 145 209 95.000000
E 145 589 95.000000
E 145 609 101.000000
E 146 496 96.000000
E 146 515 108.000000
E 147 401 109.000000
E 147 477 97.000000
E 148 200 89.000000
E 148 351 101.000000
E 149 300 98.000000
E 149 458 103.000000
E 149 495 100.000000
E 149 511 94.000000
E 149 614 103.000000
E 150 254 94.000000
E 150 370 93.000000
E 151 189 104.000000
E 151 232 102.000000
E 151 355 99.000000
E 151 539 96.000000
E 151 587 99.000000
E 151 592 104.000000
E 152 391 97.000000
E 152 392 104.000000
E 153 447 97.000000
E 153 450 106.000000
E 153 482 103.000000
E 154 236 102.000000
E 154 333 103.000000
E 154 449 99.000000
E 155 564 98.000000
E 156 419 108.000000
E 156 488 97.000000
E 156 637 105.000000
E 157 188 99.000000
E 157 468 98.000000
E 157 482 109.000000
E 158 228 102.000000
E 158 331 98.000000
E 158 508 93.000000
E 158 576 98.000000
E 159 160 102.000000
E 159 414 100.000000
E 160 568 100.000000
E 161 482 101.000000
E 162 332 97.000000
E 162 488 100.000000
E 162 507 108.000000
E 163 448 97.000000
E 164 299 108.000000
E 164 359 107.000000
E 165 224 102.000000
E 165 373 90.000000
E 165 513 99.000000
E 166 363 116.000000
E 166 492 102.000000
E 167 175 96.000000
E 167 544 100.000000
E 168 337 97.000000
E 168 502 94.000000
E 168 606 100.000000
E 169 196 97.000000
E 170 257 96.000000
E 170 338 96.000000
E 171 609 101.000000
E 172 405 99.000000
E 172 547 104.000000
E 173 310 105.000000
E 173 503 106.000000
E 174 196 93.000000
E 174 319 99.000000
E 174 429 101.000000
E 174 564 101.000000
E 174 578 97.000000
E 175 259 109.000000
E 175 393 89.000000
E 176 192 98.000000
E 177 178 95.000000
E 177 189 106.000000
E 177 214 99.000000
E 177 263 96.000000
E 177 309 95.000000
E 177 495 98.000000
E 177 496 104.000000
E 177 593 101.000000
E 178 309 91.000000
E 178 503 97.000000
E 179 187 105.000000
E 179 306 100.000000
E 179 404 100.000000
E 180 350 95.000000
E 181 187 99.000000
E 181 191 90.000000
E 181 367 104.000000
E 181 559 99.000000
E 181 599 100.000000
E 182 503 98.000000
E 183 416 96.000000
E 183 454 104.000000
E 183 569 98.000000
E 183 613 103.000000
E 184 200 102.000000
E 184 232 105.000000
E 184 369 102.000000
E 184 482 98.000000
E 184 485 107.000000
E 185 366 101.000000
E 186 243 99.000000
E 186 461 101.000000
E 186 616 103.000000
E 186 623 99.000000
E 187 265 94.000000
E 188 218 91.000000
E 188 279 99.000000
E 188 533 101.000000
E 189 210 94.000000
E 189 379 89.000000
E 189 436 98.000000
E 189 459 104.000000
E 189 479 104.000000
E 190 348 103.000000
E 190 432 107.000000
E 190 496 104.000000
E 191 199 105.000000
E 191 389 94.000000
E 191 464 105.000000
E 191 548 105.000000
E 192 569 95.000000
E 193 310 94.000000
E 193 325 104.000000
E 194 211 105.000000
E 194 479 100.000000
E 195 344 90.000000
E 196 231 101.000000
E 196 562 89.000000
E 197 482 98.000000
E 197 594 105.000000
E 199 284 99.000000
E 199 325 100.000000
E 199 494 98.000000
E 200 204 90.000000
E 200 253 101.000000
E 200 381 104.000000
E 200 452 96.000000
E 200 567 89.000000
E 200 577 101.000000
E 201 315 95.000000
E 202 222 106.000000
E 203 558 102.000000
E 203 561 98.000000
E 203 579 103.000000
E 205 445 97.000000
E 205 600 99.000000
E 206 354 93.000000
E 208 216 99.000000
E 208 415 99.000000
E 208 430 106.000000
E 208 545 93.000000
E 209 248 100.000000
E 210 243 104.000000
E 210 282 86.000000
E 210 296 104.000000
E 211 318 99.000000
E 211 375 98.000000
E 211 535 102.000000
E 212 333 96.000000
E 212 461 102.000000
E 213 271 103.000000
E 213 274 101.000000
E 215 251 105.000000
E 215 347 99.000000
E 215 450 94.000000
E 215 533 99.000000
E 215 584 97.000000
E 216 441 99.000000
E 216 580 101.000000
E 217 222 92.000000
E 217 360 86.000000
E 218 307 96.000000
E 218 308 98.000000
E 219 392 106.000000
E 220 363 106.000000
E 220 391 99.000000
E 221 237 101.000000
E 221 325 100.000000
E 221 581 99.000000
E 222 314 104.000000
E 222 437 96.000000
E 222 472 91.000000
E 222 534 102.000000
E 222 633 99.000000
E 223 264 104.000000
E 223 363 98.000000
E 223 486 98.000000
E 224 357 109.000000
E 224 536 99.000000
E 225 339 93.000000
E 226 317 96.000000
E 226 435 101.000000
E 227 282 104.000000
E 227 640 94.000000
E 228 338 90.000000
E 229 502 109.000000
E 230 234 90.000000
E 230 239 96.000000
E 230 403 88.000000
E 230 631 110.000000
E 231 340 106.000000
E 231 371 97.000000
E 231 376 99.000000
E 231 505 105.000000
E 231 533 102.000000
E 231 574 100.000000
E 232 547 107.000000
E 232 550 87.000000
E 233 368 100.000000
E 233 380 107.000000
E 234 561 103.000000
E 234 585 101.000000
E 234 622 100.000000
E 235 357 103.000000
E 235 526 100.000000
E 236 485 96.000000
E 239 358 105.000000
E 239 558 100.000000
E 240 382 93.000000
E 240 406 108.000000
E 241 498 96.000000
E 242 546 101.000000
E 243 497 108.000000
E 244 280 106.000000
E 244 537 99.000000
E 245 468 104.000000
E 246 362 97.000000
E 246 489 105.000000
E 247 347 94.000000
E 248 524 98.000000
E 250 493 106.000000
E 250 638 96.000000
E 252 340 104.000000
E 252 502 97.000000
E 253 392 94.000000
E 253 424 95.000000
E 254 261 100.000000
E 254 267 90.000000
E 254 285 99.000000
E 254 432 105.000000
E 255 424 100.000000
E 255 528 105.000000
E 256 468 99.000000
E 256 565 96.000000
E 257 427 97.000000
E 257 544 103.000000
E 258 373 97.000000
E 258 633 96.000000
E 259 361 99.000000
E 260 298 83.000000
E 260 579 91.000000
E 261 265 104.000000
E 262 385 100.000000
E 262 537 92.000000
E 264 478 102.000000
E 264 522 97.000000
E 264 580 102.000000
E 265 309 95.000000
E 265 441 99.000000
E 266 297 104.000000
E 266 585 93.000000
E 266 615 98.000000
E 267 475 97.000000
E 268 354 97.000000
E 268 637 99.000000
E 269 618 100.000000
E 270 428 106.000000
E 271 572 95.000000
E 272 533 99.000000
E 273 301 100.000000
E 274 345 103.000000
E 275 494 103.000000
E 276 315 98.000000
E 277 392 97.000000
E 278 448 100.000000
E 278 457 99.000000
E 279 617 93.000000
E 280 583 97.000000
E 281 413 99.000000
E 281 498 108.000000
E 281 584 108.000000
E 282 333 97.000000
E 282 520 103.000000
E 282 526 107.000000
E 282 570 98.000000
E 283 347 105.000000
E 283 440 111.000000
E 285 629 98.000000
E 286 333 112.000000
E 286 335 94.000000
E 286 560 99.000000
E 286 602 106.000000
E 287 508 105.000000
E 288 475 101.000000
E 288 479 95.000000
E 289 424 91.000000
E 289 606 97.000000
E 290 369 108.000000
E 290 488 96.000000
E 291 408 90.000000
E 291 470 104.000000
E 292 420 105.000000
E 293 634 91.000000
E 294 428 100.000000
E 294 442 107.000000
E 295 539 103.000000
E 296 352 102.000000
E 297 546 102.000000
E 298 342 92.000000
E 298 632 102.000000
E 300 333 106.000000
E 300 370 92.000000
E 300 453 113.000000
E 300 516 100.000000
E 301 308 103.000000
E 301 342 102.000000
E 302 400 100.000000
E 302 524 104.000000
E 302 620 105.000000
E 303 573 103.000000
E 304 548 104.000000
E 305 344 101.000000
E 305 406 99.000000
E 305 430 103.000000
E 305 482 103.000000
E 305 580 99.000000
E 306 440 105.000000
E 307 405 100.000000
E 307 598 96.000000
E 308 552 96.000000
E 309 350 95.000000
E 309 473 100.000000
E 309 633 95.000000
E 311 602 99.000000
E 312 391 98.000000
E 315 413 95.000000
E 316 457 97.000000
E 317 451 99.000000
E 319 510 104.000000
E 319 533 96.000000
E 320 496 97.000000
E 321 597 102.000000
E 322 434 105.000000
E 322 468 107.000000
E 322 600 98.000000
E 323 427 96.000000
E 324 455 102.000000
E 326 589 90.000000
E 327 342 105.000000
E 327 560 103.000000
E 328 352 92.000000
E 328 559 89.000000
E 328 625 108.000000
E 329 429 102.000000
E 329 448 93.000000
E 329 602 94.000000
E 330 370 100.000000
E 330 396 100.000000
E 330 437 103.000000
E 330 554 96.000000
E 331 480 94.000000
E 331 508 111.000000
E 332 549 100.000000
E 333 407 96.000000
E 335 492 98.000000
E 335 552 105.000000
E 335 619 94.000000
E 336 409 95.000000
E 337 602 97.000000
E 338 405 103.000000
E 339 618 104.000000
E 340 617 93.000000
E 341 438 97.000000
E 341 614 118.000000
E 342 428 105.000000
E 343 592 94.000000
E 344 462 106.000000
E 344 621 99.000000
E 346 356 94.000000
E 346 375 102.000000
E 346 391 100.000000
E 346 449 97.000000
E 346 520 100.000000
E 346 579 88.000000
E 346 614 104.000000
E 347 400 108.000000
E 347 421 100.000000
E 348 410 103.000000
E 348 511 102.000000
E 349 459 102.000000
E 349 510 87.000000
E 349 534 92.000000
E 351 485 113.000000
E 352 428 100.000000
E 352 589 96.000000
E 352 623 100.000000
E 352 638 103.000000
E 353 491 110.000000
E 354 379 105.000000
E 354 496 102.000000
E 355 398 98.000000
E 355 440 99.000000
E 359 482 94.000000
E 360 608 109.000000
E 362 378 103.000000
E 362 404 96.000000
E 364 413 92.000000
E 366 473 90.000000
E 366 612 95.000000
E 368 508 90.000000
E 368 633 102.000000
E 369 405 90.000000
E 369 439 102.000000
E 369 587 101.000000
E 370 403 96.000000
E 370 427 94.000000
E 370 571 101.000000
E 370 597 103.000000
E 370 640 94.000000
E 372 452 98.000000
E 372 634 99.000000
E 373 591 103.000000
E 374 386 107.000000
E 375 634 106.000000
E 376 465 99.000000
E 376 550 107.000000
E 377 606 97.000000
E 378 592 101.000000
E 380 455 100.000000
E 380 529 104.000000
E 380 624 92.000000
E 381 510 103.000000
E 382 383 102.000000
E 382 391 94.000000
E 384 542 101.000000
E 385 386 103.000000
E 385 576 100.000000
E 387 459 100.000000
E 387 543 106.000000
E 389 422 104.000000
E 389 452 101.000000
E 389 504 102.000000
E 389 543 100.000000
E 389 556 104.000000
E 390 508 99.000000
E 390 591 100.000000
E 391 413 97.000000
E 392 467 104.000000
E 393 394 96.000000
E 393 622 103.000000
E 394 612 102.000000
E 396 606 94.000000
E 397 451 109.000000
E 398 407 98.000000
E 399 502 103.000000
E 400 557 95.000000
E 401 448 91.000000
E 402 618 95.000000
E 403 415 101.000000
E 403 487 93.000000
E 404 442 88.000000
E 404 555 98.000000
E 407 622 94.000000
E 408 497 89.000000
E 409 423 101.000000
E 410 487 107.000000
E 410 531 112.000000
E 411 487 94.000000
E 412 636 107.000000
E 413 543 101.000000
E 413 548 98.000000
E 413 613 98.000000
E 414 433 96.000000
E 414 575 96.000000
E 415 627 104.000000
E 417 553 107.000000
E 417 612 101.000000
E 418 566 91.000000
E 419 586 96.000000
E 420 621 102.000000
E 421 442 100.000000
E 421 566 96.000000
E 424 529 102.000000
E 425 582 92.000000
E 426 489 93.000000
E 427 607 105.000000
E 428 498 100.000000
E 429 452 100.000000
E 430 474 99.000000
E 431 489 99.000000
E 432 521 94.000000
E 432 600 99.000000
E 433 621 99.000000
E 434 453 99.000000
E 435 506 99.000000
E 436 566 104.000000
E 436 624 98.000000
E 436 633 109.000000
E 437 607 95.000000
E 438 482 97.000000
E 441 538 96.000000
E 442 552 101.000000
E 443 593 100.000000
E 444 498 91.000000
E 444 619 105.000000
E 446 587 99.000000
E 446 635 98.000000
E 448 544 95.000000
E 450 492 100.000000
E 453 602 98.000000
E 454 549 95.000000
E 456 488 95.000000
E 457 493 97.000000
E 458 490 97.000000
E 460 510 100.000000
E 463 537 107.000000
E 463 574 104.000000
E 466 586 102.000000
E 467 471 97.000000
E 469 476 99.000000
E 470 523 105.000000
E 473 527 93.000000
E 473 594 101.000000
E 474 534 107.000000
E 475 520 99.000000
E 479 515 101.000000
E 480 604 102.000000
E 482 533 105.000000
E 482 544 96.000000
E 483 563 93.000000
E 483 639 107.000000
E 486 487 99.000000
E 488 615 99.000000
E 489 561 94.000000
E 490 537 100.000000
E 493 519 105.000000
E 496 524 106.000000
E 496 576 108.000000
E 497 620 99.000000
E 498 501 103.000000
E 500 610 101.000000
E 502 560 104.000000
E 503 550 92.000000
E 506 594 95.000000
E 509 601 102.000000
E 510 516 107.000000
E 511 518 112.000000
E 511 629 94.000000
E 512 563 100.000000
E 512 586 102.000000
E 514 587 106.000000
E 515 569 97.000000
E 515 636 100.000000
E 517 618 95.000000
E 519 608 97.000000
E 520 607 105.000000
E 520 628 94.000000
E 521 529 94.000000
E 522 612 96.000000
E 523 544 99.000000
E 525 585 98.000000
E 526 582 102.000000
E 526 618 102.000000
E 527 609 100.000000
E 528 538 103.000000
E 528 563 91.000000
E 529 598 101.000000
E 530 561 100.000000
E 531 582 90.000000
E 533 541 102.000000
E 533 605 97.000000
E 535 546 98.000000
E 536 569 96.000000
E 538 633 99.000000
E 540 550 100.000000
E 542 562 89.000000
E 542 630 108.000000
E 545 633 92.000000
E 548 596 90.000000
E 549 553 88.000000
E 549 603 99.000000
E 550 586 100.000000
E 550 589 100.000000
E 551 601 92.000000
E 552 636 100.000000
E 555 589 98.000000
E 557 640 98.000000
E 559 595 96.000000
E 564 584 98.000000
E 564 622 100.000000
E 566 597 98.000000
E 575 633 103.000000
E 590 639 101.000000
E 601 627 98.000000
E 624 627 103.000000
E 626 628 94.000000
END

SECTION Terminals
Terminals 25
TP 1 52.000000
TP 2 528.000000
TP 3 1048.000000
TP 4 224.000000
TP 5 1204.000000
TP 6 1072.000000
TP 7 368.000000
TP 8 1188.000000
TP 9 620.000000
TP 10 292.000000
TP 11 280.000000
TP 12 452.000000
TP 13 1176.000000
TP 14 76.000000
TP 15 1144.000000
TP 16 484.000000
TP 17 1116.000000
TP 18 272.000000
TP 19 632.000000
TP 20 1012.000000
TP 21 392.000000
TP 22 452.000000
TP 23 544.000000
TP 24 912.000000
TP 25 560.000000
END

EOF
